25
[[-1, 0, 0, 1836134634, 0, 42747, 0, 0, 0, 0, 0, 0, 0, 1930744630, 20768, 0, 0, 41675, 0, 39626, 0, 26172, 10379, 36981, 36781],[0, -1, 0, 0, 0, 0, 0, 0, 0, 41908, 0, 19400, 33245, 0, 0, 0, 45390, 0, 39359, 0, 0, 0, 0, 0, 35380],[0, 0, -1, 0, 30424, 0, 37047, 0, 0, 36869, 0, 0, 0, 0, 17188, 0, 35553, 0, 23269, 25448, 13610, 0, 0, 0, 0],[1836134634, 0, 0, -1, 0, 41590, 0, 0, 0, 0, 0, 0, 0, 35932, 0, 0, 0, 16145, 0, 0, 0, 0, 14345, 0, 22707],[0, 0, 30424, 0, -1, 0, 0, 0, 0, 0, 24335, 26026, 0, 0, 21088, 0, 0, 0, 0, 0, 0, 0, 0, 20565, 0],[42747, 0, 0, 41590, 0, -1, 26112, 0, 0, 0, 43504, 0, 0, 0, 38666, 40051, 0, 0, 0, 0, 45042, 11806, 0, 0, 0],[0, 0, 37047, 0, 0, 26112, -1, 0, 0, 32798, 0, 0, 29423, 33139, 0, 0, 0, 0, 0, 0, 0, 0, 41424, 0, 0],[0, 0, 0, 0, 0, 0, 0, -1, 0, 0, 0, 21549, 0, 0, 40798, 0, 0, 21857, 0, 0, 0, 43427, 0, 32476, 0],[0, 0, 0, 0, 0, 0, 0, 0, -1, 17597, 0, 0, 39109, 0, 0, 0, 0, 20332, 42756, 23561, 0, 0, 0, 40268, 33530],[0, 41908, 36869, 0, 0, 0, 32798, 0, 17597, -1, 0, 0, 0, 0, 0, 0, 0, 0, 0, 0, 0, 0, 0, 0, 0],[0, 0, 0, 0, 24335, 43504, 0, 0, 0, 0, -1, 0, 35660, 0, 0, 0, 0, 0, 0, 0, 0, 0, 37706, 0, 0],[0, 19400, 0, 0, 26026, 0, 0, 21549, 0, 0, 0, -1, 0, 0, 37404, 0, 0, 37367, 0, 0, 0, 0, 0, 37387, 105014418],[0, 33245, 0, 0, 0, 0, 29423, 0, 39109, 0, 35660, 0, -1, 0, 0, 0, 0, 0, 0, 0, 0, 0, 0, 0, 0],[1930744630, 0, 0, 35932, 0, 0, 33139, 0, 0, 0, 0, 0, 0, -1, 0, 0, 0, 0, 25467, 0, 0, 0, 0, 0, 0],[20768, 0, 17188, 0, 21088, 38666, 0, 40798, 0, 0, 0, 37404, 0, 0, -1, 0, 0, 0, 0, 0, 44918, 0, 0, 0, 41072],[0, 0, 0, 0, 0, 40051, 0, 0, 0, 0, 0, 0, 0, 0, 0, -1, 0, 0, 0, 42723, 38596, 0, 0, 0, 0],[0, 45390, 35553, 0, 0, 0, 0, 0, 0, 0, 0, 0, 0, 0, 0, 0, -1, 0, 37631, 0, 0, 0, 0, 23313, 0],[41675, 0, 0, 16145, 0, 0, 0, 21857, 20332, 0, 0, 37367, 0, 0, 0, 0, 0, -1, 0, 36240, 30225, 0, 40967, 0, 45221],[0, 39359, 23269, 0, 0, 0, 0, 0, 42756, 0, 0, 0, 0, 25467, 0, 0, 37631, 0, -1, 0, 0, 40304, 0, 0, 0],[39626, 0, 25448, 0, 0, 0, 0, 0, 23561, 0, 0, 0, 0, 0, 0, 42723, 0, 36240, 0, -1, 0, 0, 0, 0, 0],[0, 0, 13610, 0, 0, 45042, 0, 0, 0, 0, 0, 0, 0, 0, 44918, 38596, 0, 30225, 0, 0, -1, 0, 0, 15880, 0],[26172, 0, 0, 0, 0, 11806, 0, 43427, 0, 0, 0, 0, 0, 0, 0, 0, 0, 0, 40304, 0, 0, -1, 0, 29078, 0],[10379, 0, 0, 14345, 0, 0, 41424, 0, 0, 0, 37706, 0, 0, 0, 0, 0, 0, 40967, 0, 0, 0, 0, -1, 0, 0],[36981, 0, 0, 0, 20565, 0, 0, 32476, 40268, 0, 0, 37387, 0, 0, 0, 0, 23313, 0, 0, 0, 15880, 29078, 0, -1, 0],[36781, 35380, 0, 22707, 0, 0, 0, 0, 33530, 0, 0, 105014418, 0, 0, 41072, 0, 0, 45221, 0, 0, 0, 0, 0, 0, -1]]